(set-logic QF_UF)
(declare-fun A0 () Bool)
(declare-fun A1 () Bool)
(declare-fun A2 () Bool)
(declare-fun A3 () Bool)
(declare-fun A4 () Bool)
(declare-fun A5 () Bool)
(declare-fun A6 () Bool)
(declare-fun A7 () Bool)
(declare-fun A8 () Bool)
(declare-fun A9 () Bool)
(declare-fun A10 () Bool)
(declare-fun A11 () Bool)
(declare-fun A12 () Bool)
(declare-fun A13 () Bool)
(declare-fun A14 () Bool)
(declare-fun A15 () Bool)
(declare-fun A16 () Bool)
(declare-fun A17 () Bool)
(declare-fun A18 () Bool)
(declare-fun A19 () Bool)
(declare-fun A20 () Bool)
(declare-fun A21 () Bool)
(declare-fun A22 () Bool)
(declare-fun A23 () Bool)
(declare-fun A24 () Bool)
(assert (let ((.def_0 (or A22 A7))) (let ((.def_1 (not A9))) (let ((.def_2 (not A22))) (let ((.def_3 (= .def_2 .def_1))) (let ((.def_4 (not .def_3))) (let ((.def_5 (or .def_4 .def_0))) (let ((.def_6 (and .def_2 A9))) (let ((.def_7 (not .def_6))) (let ((.def_8 (or A11 A4))) (let ((.def_9 (and .def_8 .def_7))) (let ((.def_10 (and .def_9 .def_5))) (let ((.def_11 (not .def_10))) (let ((.def_12 (not A23))) (let ((.def_13 (or .def_12 A17))) (let ((.def_14 (or A6 A4))) (let ((.def_15 (not .def_14))) (let ((.def_16 (and .def_15 .def_13))) (let ((.def_17 (not .def_16))) (let ((.def_18 (not A8))) (let ((.def_19 (not A16))) (let ((.def_20 (or .def_19 .def_18))) (let ((.def_21 (not .def_20))) (let ((.def_22 (and A23 A4))) (let ((.def_23 (or .def_22 .def_21))) (let ((.def_24 (or .def_23 .def_17))) (let ((.def_25 (and .def_24 .def_11))) (let ((.def_26 (and A19 A16))) (let ((.def_27 (not .def_26))) (let ((.def_28 (not A0))) (let ((.def_29 (or .def_28 A22))) (let ((.def_30 (not .def_29))) (let ((.def_31 (or .def_30 .def_27))) (let ((.def_32 (not .def_31))) (let ((.def_33 (not A12))) (let ((.def_34 (or A15 .def_33))) (let ((.def_35 (not .def_34))) (let ((.def_36 (not A18))) (let ((.def_37 (and .def_36 A5))) (let ((.def_38 (not .def_37))) (let ((.def_39 (and .def_38 .def_35))) (let ((.def_40 (= .def_39 .def_32))) (let ((.def_41 (and A9 A18))) (let ((.def_42 (and A13 A22))) (let ((.def_43 (and .def_42 .def_41))) (let ((.def_44 (not .def_43))) (let ((.def_45 (or .def_28 A24))) (let ((.def_46 (not .def_45))) (let ((.def_47 (or A11 A3))) (let ((.def_48 (or .def_47 .def_46))) (let ((.def_49 (not .def_48))) (let ((.def_50 (or .def_49 .def_44))) (let ((.def_51 (and .def_50 .def_40))) (let ((.def_52 (not .def_51))) (let ((.def_53 (or .def_52 .def_25))) (let ((.def_54 (not A13))) (let ((.def_55 (= A0 .def_54))) (let ((.def_56 (not .def_55))) (let ((.def_57 (and A12 A15))) (let ((.def_58 (and .def_57 .def_56))) (let ((.def_59 (not .def_58))) (let ((.def_60 (and A24 A8))) (let ((.def_61 (not .def_60))) (let ((.def_62 (not A6))) (let ((.def_63 (or A19 .def_62))) (let ((.def_64 (not .def_63))) (let ((.def_65 (or .def_64 .def_61))) (let ((.def_66 (or .def_65 .def_59))) (let ((.def_67 (not A7))) (let ((.def_68 (or A12 .def_67))) (let ((.def_69 (not .def_68))) (let ((.def_70 (or .def_54 A8))) (let ((.def_71 (and .def_70 .def_69))) (let ((.def_72 (or A5 .def_33))) (let ((.def_73 (not A2))) (let ((.def_74 (or .def_73 A19))) (let ((.def_75 (and .def_74 .def_72))) (let ((.def_76 (or .def_75 .def_71))) (let ((.def_77 (not .def_76))) (let ((.def_78 (or .def_77 .def_66))) (let ((.def_79 (and A13 .def_28))) (let ((.def_80 (not .def_79))) (let ((.def_81 (and A10 .def_33))) (let ((.def_82 (and .def_81 .def_80))) (let ((.def_83 (or A8 .def_62))) (let ((.def_84 (not .def_83))) (let ((.def_85 (not A11))) (let ((.def_86 (and .def_85 A12))) (let ((.def_87 (not .def_86))) (let ((.def_88 (or .def_87 .def_84))) (let ((.def_89 (not .def_88))) (let ((.def_90 (and .def_89 .def_82))) (let ((.def_91 (or .def_1 A14))) (let ((.def_92 (not .def_91))) (let ((.def_93 (and A16 .def_67))) (let ((.def_94 (and .def_93 .def_92))) (let ((.def_95 (and A7 A9))) (let ((.def_96 (or A16 A6))) (let ((.def_97 (= .def_96 .def_95))) (let ((.def_98 (or .def_97 .def_94))) (let ((.def_99 (not .def_98))) (let ((.def_100 (and .def_99 .def_90))) (let ((.def_101 (and .def_100 .def_78))) (let ((.def_102 (= .def_101 .def_53))) (let ((.def_103 (not .def_102))) (let ((.def_104 (not A14))) (let ((.def_105 (and .def_104 A17))) (let ((.def_106 (not .def_105))) (let ((.def_107 (or A10 A15))) (let ((.def_108 (not .def_107))) (let ((.def_109 (and .def_108 .def_106))) (let ((.def_110 (not .def_109))) (let ((.def_111 (not A10))) (let ((.def_112 (or .def_111 A10))) (let ((.def_113 (not A19))) (let ((.def_114 (and .def_36 .def_113))) (let ((.def_115 (and .def_114 .def_112))) (let ((.def_116 (not .def_115))) (let ((.def_117 (and .def_116 .def_110))) (let ((.def_118 (not .def_117))) (let ((.def_119 (or A16 .def_111))) (let ((.def_120 (not A4))) (let ((.def_121 (or .def_104 .def_120))) (let ((.def_122 (and .def_121 .def_119))) (let ((.def_123 (and A12 .def_120))) (let ((.def_124 (and A4 .def_104))) (let ((.def_125 (not .def_124))) (let ((.def_126 (or .def_125 .def_123))) (let ((.def_127 (not .def_126))) (let ((.def_128 (and .def_127 .def_122))) (let ((.def_129 (and .def_128 .def_118))) (let ((.def_130 (or A13 A3))) (let ((.def_131 (not A20))) (let ((.def_132 (and .def_131 .def_120))) (let ((.def_133 (not .def_132))) (let ((.def_134 (or .def_133 .def_130))) (let ((.def_135 (not A5))) (let ((.def_136 (or .def_135 A11))) (let ((.def_137 (not .def_136))) (let ((.def_138 (or A7 .def_135))) (let ((.def_139 (not .def_138))) (let ((.def_140 (and .def_139 .def_137))) (let ((.def_141 (not .def_140))) (let ((.def_142 (and .def_141 .def_134))) (let ((.def_143 (not .def_142))) (let ((.def_144 (or A14 A16))) (let ((.def_145 (not .def_144))) (let ((.def_146 (and .def_18 .def_33))) (let ((.def_147 (or .def_146 .def_145))) (let ((.def_148 (not .def_147))) (let ((.def_149 (or A23 .def_131))) (let ((.def_150 (not .def_149))) (let ((.def_151 (= A19 .def_104))) (let ((.def_152 (not .def_151))) (let ((.def_153 (= .def_152 .def_150))) (let ((.def_154 (not .def_153))) (let ((.def_155 (or .def_154 .def_148))) (let ((.def_156 (and .def_155 .def_143))) (let ((.def_157 (not .def_156))) (let ((.def_158 (or .def_157 .def_129))) (let ((.def_159 (not .def_158))) (let ((.def_160 (and .def_36 A12))) (let ((.def_161 (not .def_160))) (let ((.def_162 (or A16 A11))) (let ((.def_163 (or .def_162 .def_161))) (let ((.def_164 (and A19 A23))) (let ((.def_165 (not .def_164))) (let ((.def_166 (not A24))) (let ((.def_167 (and .def_28 .def_166))) (let ((.def_168 (and .def_167 .def_165))) (let ((.def_169 (not .def_168))) (let ((.def_170 (and .def_169 .def_163))) (let ((.def_171 (= A14 .def_85))) (let ((.def_172 (not .def_171))) (let ((.def_173 (and A24 A10))) (let ((.def_174 (not .def_173))) (let ((.def_175 (or .def_174 .def_172))) (let ((.def_176 (not .def_175))) (let ((.def_177 (and A20 A0))) (let ((.def_178 (not .def_177))) (let ((.def_179 (or A9 A22))) (let ((.def_180 (not .def_179))) (let ((.def_181 (and .def_180 .def_178))) (let ((.def_182 (or .def_181 .def_176))) (let ((.def_183 (or .def_182 .def_170))) (let ((.def_184 (not .def_183))) (let ((.def_185 (not A15))) (let ((.def_186 (or .def_185 A10))) (let ((.def_187 (or .def_131 .def_28))) (let ((.def_188 (and .def_187 .def_186))) (let ((.def_189 (not .def_188))) (let ((.def_190 (or A0 A21))) (let ((.def_191 (not .def_190))) (let ((.def_192 (not A17))) (let ((.def_193 (= .def_192 .def_185))) (let ((.def_194 (not .def_193))) (let ((.def_195 (or .def_194 .def_191))) (let ((.def_196 (and .def_195 .def_189))) (let ((.def_197 (and A0 A19))) (let ((.def_198 (not .def_197))) (let ((.def_199 (or A16 .def_104))) (let ((.def_200 (not .def_199))) (let ((.def_201 (and .def_200 .def_198))) (let ((.def_202 (not .def_201))) (let ((.def_203 (or .def_111 A11))) (let ((.def_204 (or .def_2 .def_104))) (let ((.def_205 (and .def_204 .def_203))) (let ((.def_206 (or .def_205 .def_202))) (let ((.def_207 (and .def_206 .def_196))) (let ((.def_208 (not .def_207))) (let ((.def_209 (and .def_208 .def_184))) (let ((.def_210 (not .def_209))) (let ((.def_211 (or .def_210 .def_159))) (let ((.def_212 (not .def_211))) (let ((.def_213 (and .def_212 .def_103))) (let ((.def_214 (or .def_2 A15))) (let ((.def_215 (and A19 A17))) (let ((.def_216 (not .def_215))) (let ((.def_217 (or .def_216 .def_214))) (let ((.def_218 (and .def_131 .def_73))) (let ((.def_219 (not A1))) (let ((.def_220 (and .def_12 .def_219))) (let ((.def_221 (or .def_220 .def_218))) (let ((.def_222 (not .def_221))) (let ((.def_223 (or .def_222 .def_217))) (let ((.def_224 (not .def_223))) (let ((.def_225 (and A7 A8))) (let ((.def_226 (or A1 A20))) (let ((.def_227 (or .def_226 .def_225))) (let ((.def_228 (or A14 A18))) (let ((.def_229 (or A2 A2))) (let ((.def_230 (or .def_229 .def_228))) (let ((.def_231 (and .def_230 .def_227))) (let ((.def_232 (not .def_231))) (let ((.def_233 (or .def_232 .def_224))) (let ((.def_234 (not A3))) (let ((.def_235 (or A23 .def_234))) (let ((.def_236 (not .def_235))) (let ((.def_237 (and A6 A4))) (let ((.def_238 (= .def_237 .def_236))) (let ((.def_239 (or A10 A14))) (let ((.def_240 (not .def_239))) (let ((.def_241 (and .def_2 .def_192))) (let ((.def_242 (not .def_241))) (let ((.def_243 (or .def_242 .def_240))) (let ((.def_244 (not .def_243))) (let ((.def_245 (= .def_244 .def_238))) (let ((.def_246 (not .def_245))) (let ((.def_247 (or A24 .def_234))) (let ((.def_248 (or .def_33 A6))) (let ((.def_249 (and .def_248 .def_247))) (let ((.def_250 (not .def_249))) (let ((.def_251 (= A4 .def_73))) (let ((.def_252 (not .def_251))) (let ((.def_253 (and .def_36 A14))) (let ((.def_254 (not .def_253))) (let ((.def_255 (and .def_254 .def_252))) (let ((.def_256 (and .def_255 .def_250))) (let ((.def_257 (not .def_256))) (let ((.def_258 (or .def_257 .def_246))) (let ((.def_259 (not .def_258))) (let ((.def_260 (and .def_259 .def_233))) (let ((.def_261 (not .def_260))) (let ((.def_262 (and .def_62 .def_131))) (let ((.def_263 (and .def_18 .def_219))) (let ((.def_264 (and .def_263 .def_262))) (let ((.def_265 (= .def_36 .def_120))) (let ((.def_266 (or .def_18 A21))) (let ((.def_267 (or .def_266 .def_265))) (let ((.def_268 (not .def_267))) (let ((.def_269 (or .def_268 .def_264))) (let ((.def_270 (not .def_269))) (let ((.def_271 (or A13 A17))) (let ((.def_272 (or A21 A10))) (let ((.def_273 (or .def_272 .def_271))) (let ((.def_274 (and A20 A16))) (let ((.def_275 (not .def_274))) (let ((.def_276 (or A2 A9))) (let ((.def_277 (not .def_276))) (let ((.def_278 (or .def_277 .def_275))) (let ((.def_279 (or .def_278 .def_273))) (let ((.def_280 (or .def_279 .def_270))) (let ((.def_281 (not .def_280))) (let ((.def_282 (= A9 A4))) (let ((.def_283 (not .def_282))) (let ((.def_284 (and .def_33 .def_166))) (let ((.def_285 (not .def_284))) (let ((.def_286 (or .def_285 .def_283))) (let ((.def_287 (not .def_96))) (let ((.def_288 (and A1 A9))) (let ((.def_289 (not .def_288))) (let ((.def_290 (or .def_289 .def_287))) (let ((.def_291 (and .def_290 .def_286))) (let ((.def_292 (and .def_192 .def_185))) (let ((.def_293 (not .def_292))) (let ((.def_294 (or A23 A13))) (let ((.def_295 (not .def_294))) (let ((.def_296 (or .def_295 .def_293))) (let ((.def_297 (not .def_296))) (let ((.def_298 (and .def_36 A21))) (let ((.def_299 (not .def_298))) (let ((.def_300 (and .def_185 .def_12))) (let ((.def_301 (and .def_300 .def_299))) (let ((.def_302 (and .def_301 .def_297))) (let ((.def_303 (not .def_302))) (let ((.def_304 (and .def_303 .def_291))) (let ((.def_305 (not .def_304))) (let ((.def_306 (or .def_305 .def_281))) (let ((.def_307 (or .def_306 .def_261))) (let ((.def_308 (not .def_307))) (let ((.def_309 (or .def_62 A12))) (let ((.def_310 (not .def_309))) (let ((.def_311 (and .def_185 A5))) (let ((.def_312 (not .def_311))) (let ((.def_313 (or .def_312 .def_310))) (let ((.def_314 (not .def_313))) (let ((.def_315 (or .def_111 A18))) (let ((.def_316 (not .def_315))) (let ((.def_317 (and A2 A6))) (let ((.def_318 (and .def_317 .def_316))) (let ((.def_319 (or .def_318 .def_314))) (let ((.def_320 (and A7 .def_185))) (let ((.def_321 (not .def_320))) (let ((.def_322 (or .def_19 A4))) (let ((.def_323 (not .def_322))) (let ((.def_324 (and .def_323 .def_321))) (let ((.def_325 (and .def_185 .def_234))) (let ((.def_326 (not .def_325))) (let ((.def_327 (and A3 .def_234))) (let ((.def_328 (not .def_327))) (let ((.def_329 (or .def_328 .def_326))) (let ((.def_330 (not .def_329))) (let ((.def_331 (= .def_330 .def_324))) (let ((.def_332 (not .def_331))) (let ((.def_333 (and .def_332 .def_319))) (let ((.def_334 (and .def_111 A20))) (let ((.def_335 (not .def_334))) (let ((.def_336 (and .def_12 .def_85))) (let ((.def_337 (and .def_336 .def_335))) (let ((.def_338 (= A8 A22))) (let ((.def_339 (or A23 .def_28))) (let ((.def_340 (not .def_339))) (let ((.def_341 (and .def_340 .def_338))) (let ((.def_342 (not .def_341))) (let ((.def_343 (or .def_342 .def_337))) (let ((.def_344 (and .def_33 .def_67))) (let ((.def_345 (or .def_111 .def_120))) (let ((.def_346 (not .def_345))) (let ((.def_347 (and .def_346 .def_344))) (let ((.def_348 (not .def_347))) (let ((.def_349 (and A6 A12))) (let ((.def_350 (not A21))) (let ((.def_351 (and A10 .def_350))) (let ((.def_352 (and .def_351 .def_349))) (let ((.def_353 (not .def_352))) (let ((.def_354 (or .def_353 .def_348))) (let ((.def_355 (not .def_354))) (let ((.def_356 (= .def_355 .def_343))) (let ((.def_357 (not .def_356))) (let ((.def_358 (and .def_357 .def_333))) (let ((.def_359 (not .def_358))) (let ((.def_360 (or A13 A11))) (let ((.def_361 (not .def_360))) (let ((.def_362 (and .def_111 .def_67))) (let ((.def_363 (not .def_362))) (let ((.def_364 (and .def_363 .def_361))) (let ((.def_365 (and .def_120 A24))) (let ((.def_366 (not .def_365))) (let ((.def_367 (or .def_85 A21))) (let ((.def_368 (and .def_367 .def_366))) (let ((.def_369 (or .def_368 .def_364))) (let ((.def_370 (= .def_234 .def_113))) (let ((.def_371 (and .def_131 .def_1))) (let ((.def_372 (and .def_371 .def_370))) (let ((.def_373 (= .def_54 A13))) (let ((.def_374 (or .def_28 .def_234))) (let ((.def_375 (not .def_374))) (let ((.def_376 (and .def_375 .def_373))) (let ((.def_377 (not .def_376))) (let ((.def_378 (and .def_377 .def_372))) (let ((.def_379 (and .def_378 .def_369))) (let ((.def_380 (not .def_379))) (let ((.def_381 (or .def_166 .def_104))) (let ((.def_382 (or A3 A10))) (let ((.def_383 (not .def_382))) (let ((.def_384 (and .def_383 .def_381))) (let ((.def_385 (not .def_384))) (let ((.def_386 (and .def_2 A7))) (let ((.def_387 (not .def_386))) (let ((.def_388 (or A2 .def_234))) (let ((.def_389 (or .def_388 .def_387))) (let ((.def_390 (not .def_389))) (let ((.def_391 (or .def_390 .def_385))) (let ((.def_392 (not .def_391))) (let ((.def_393 (= A1 A15))) (let ((.def_394 (not .def_393))) (let ((.def_395 (or .def_104 A4))) (let ((.def_396 (or .def_395 .def_394))) (let ((.def_397 (or A21 .def_36))) (let ((.def_398 (not .def_397))) (let ((.def_399 (or A1 .def_85))) (let ((.def_400 (not .def_399))) (let ((.def_401 (and .def_400 .def_398))) (let ((.def_402 (or .def_401 .def_396))) (let ((.def_403 (not .def_402))) (let ((.def_404 (or .def_403 .def_392))) (let ((.def_405 (and .def_404 .def_380))) (let ((.def_406 (or .def_405 .def_359))) (let ((.def_407 (not .def_406))) (let ((.def_408 (and .def_407 .def_308))) (let ((.def_409 (or .def_408 .def_213))) (let ((.def_410 (not .def_409))) .def_410))))))))))))))))))))))))))))))))))))))))))))))))))))))))))))))))))))))))))))))))))))))))))))))))))))))))))))))))))))))))))))))))))))))))))))))))))))))))))))))))))))))))))))))))))))))))))))))))))))))))))))))))))))))))))))))))))))))))))))))))))))))))))))))))))))))))))))))))))))))))))))))))))))))))))))))))))))))))))))))))))))))))))))))))))))))))))))))))))))))))))))))))))))))))))))))))))))))))))))))))))))))))))))
(check-sat)
